Optimizer called with the following parameters:
{'focal_plane_mask': {'field_stop_radius': None,
                      'grayscale': True,
                      'num_pix': 150,
                      'radius': 3.7},
 'image': {'bandwidth': 0.2,
           'contrast': 10,
           'iwa': 3.6,
           'num_wavelengths': 5,
           'owa': 14.0,
           'resolution': 2},
 'instrument': {'inst_name': 'USORT'},
 'lyot_stop': {'alignment_tolerance': 0,
               'filename': 'USORT/LS_USORT_circ_ID0000_OD0990_ovsamp16_N0128.fits',
               'num_lyot_stops': 1},
 'method': {'edge_width_for_prior': 2,
            'ending_scale': 1,
            'force_no_hermitian_symmetry': False,
            'force_no_x_mirror_symmetry': False,
            'force_no_y_mirror_symmetry': False,
            'initial_throughput_estimate': 1,
            'maximize_planet_throughput': True,
            'num_throughput_iterations': 2,
            'starting_scale': 1},
 'pupil': {'N': 128,
           'filename': 'USORT/TelAp_USORT_offaxis_ovsamp16_N0128.fits'},
 'solver': {'crossover': 0,
            'method': 2,
            'num_threads': 0}}

File organization:
{'analysis_dir': '/user/bnickson/GitHub/LUVex_TelAps/aplc_optimization/surveys/usort_offaxis_survey_N0128_telserv3/FPM37_IWA36/analysis',
 'drivers_dir': '/user/bnickson/GitHub/LUVex_TelAps/aplc_optimization/surveys/usort_offaxis_survey_N0128_telserv3/FPM37_IWA36/drivers',
 'input_files_dir': '/user/bnickson/GitHub/LUVex_TelAps/aplc_optimization/masks',
 'log_dir': '/user/bnickson/GitHub/LUVex_TelAps/aplc_optimization/surveys/usort_offaxis_survey_N0128_telserv3/FPM37_IWA36/logs',
 'solution_dir': '/user/bnickson/GitHub/LUVex_TelAps/aplc_optimization/surveys/usort_offaxis_survey_N0128_telserv3/FPM37_IWA36/solutions',
 'survey_dir': '/user/bnickson/GitHub/LUVex_TelAps/aplc_optimization/surveys/usort_offaxis_survey_N0128_telserv3/FPM37_IWA36'}

Telescope pupil:
   Mirror symmetry in x: yes
   Mirror symmetry in y: yes

Lyot stop #0:
   Mirror symmetry in x: yes
Lyot stop #0:
   Mirror symmetry in y: yes

Complete APLC:
   Mirror symmetry in x: yes
   Mirror symmetry in y: yes

Starting optimization at scale 1 with 2726 variables and 2885 constraints.
Creating model...
Set parameter Username
Academic license - for non-commercial use only - expires 2024-10-25
Set parameter Crossover to value 0
Set parameter Method to value 2
Calculating and adding constraints...
Wavelength 1/5; Variable 1000/2726
Wavelength 1/5; Variable 2000/2726
Wavelength 2/5; Variable 1000/2726
Wavelength 2/5; Variable 2000/2726
Wavelength 3/5; Variable 1000/2726
Wavelength 3/5; Variable 2000/2726
Wavelength 4/5; Variable 1000/2726
Wavelength 4/5; Variable 2000/2726
Wavelength 5/5; Variable 1000/2726
Wavelength 5/5; Variable 2000/2726
Start optimization...
Gurobi Optimizer version 10.0.3 build v10.0.3rc0 (linux64)

CPU model: Intel(R) Xeon(R) Gold 6146 CPU @ 3.20GHz, instruction set [SSE2|AVX|AVX2|AVX512]
Thread count: 24 physical cores, 48 logical processors, using up to 24 threads

Optimize a model with 5770 rows, 2726 columns and 15729020 nonzeros
Model fingerprint: 0x9d8b8fac
Coefficient statistics:
  Matrix range     [2e-12, 5e-04]
  Objective range  [2e-03, 1e+00]
  Bounds range     [1e+00, 1e+00]
  RHS range        [1e-05, 1e-05]
Presolve removed 0 rows and 0 columns (presolve time = 6s) ...
Presolve time: 7.16s
Presolved: 2726 rows, 8496 columns, 15731746 nonzeros
Error: invalid user locale; possible fix is to set the system environment
       variable 'LC_ALL' to a valid locale (e.g., to 'C')
Ordering time: 0.09s

Barrier statistics:
 AA' NZ     : 3.714e+06
 Factor NZ  : 3.717e+06 (roughly 34 MB of memory)
 Factor Ops : 6.756e+09 (less than 1 second per iteration)
 Threads    : 24

                  Objective                Residual
Iter       Primal          Dual         Primal    Dual     Compl     Time
   0   5.68495133e+03  0.00000000e+00  0.00e+00 0.00e+00  9.88e-01    11s
   1   3.01501561e+03  6.97137960e+02  0.00e+00 1.48e-01  3.47e-01    12s
   2   2.29015502e+03  9.55808368e+02  0.00e+00 1.03e-01  2.06e-01    13s
   3   1.93999497e+03  1.12356382e+03  0.00e+00 7.40e-02  1.33e-01    14s
   4   1.78694453e+03  1.12058589e+03  0.00e+00 6.71e-02  1.17e-01    14s
   5   1.68132619e+03  1.14946120e+03  0.00e+00 5.32e-02  9.40e-02    15s
   6   1.42649568e+03  1.15644080e+03  0.00e+00 4.24e-02  6.61e-02    16s
   7   1.28589102e+03  1.15054214e+03  0.00e+00 3.03e-02  4.38e-02    17s
   8   1.21625959e+03  1.13064500e+03  0.00e+00 2.60e-02  3.55e-02    17s
   9   1.17960384e+03  1.11695781e+03  0.00e+00 2.28e-02  3.03e-02    18s
  10   1.16071891e+03  1.10303007e+03  0.00e+00 2.05e-02  2.75e-02    19s
  11   1.12836202e+03  1.09557889e+03  0.00e+00 1.93e-02  2.41e-02    19s
  12   1.08088314e+03  1.07716764e+03  0.00e+00 1.61e-02  1.82e-02    20s
  13   1.05819984e+03  1.06827941e+03  0.00e+00 1.47e-02  1.55e-02    21s
  14   1.04500981e+03  1.05886361e+03  0.00e+00 1.34e-02  1.38e-02    22s
  15   1.02995463e+03  1.04966003e+03  0.00e+00 1.21e-02  1.19e-02    22s
  16   1.01559292e+03  1.04729115e+03  0.00e+00 1.18e-02  1.05e-02    23s
  17   1.00198744e+03  1.03153582e+03  0.00e+00 9.89e-03  8.49e-03    24s
  18   9.77814153e+02  1.01546213e+03  0.00e+00 7.90e-03  5.37e-03    24s
  19   9.72617532e+02  1.00115855e+03  0.00e+00 6.14e-03  4.18e-03    25s
  20   9.68351588e+02  9.98960530e+02  0.00e+00 5.86e-03  3.65e-03    26s
  21   9.62372865e+02  9.82586157e+02  0.00e+00 3.84e-03  2.35e-03    27s
  22   9.59463258e+02  9.75815175e+02  0.00e+00 3.04e-03  1.83e-03    27s
  23   9.56868434e+02  9.67875644e+02  0.00e+00 2.08e-03  1.26e-03    28s
  24   9.53245506e+02  9.63857024e+02  0.00e+00 1.59e-03  7.62e-04    29s
  25   9.52338201e+02  9.57736709e+02  0.00e+00 8.88e-04  4.70e-04    30s
  26   9.51743086e+02  9.57207167e+02  0.00e+00 8.26e-04  3.98e-04    31s
  27   9.51407482e+02  9.56354267e+02  0.00e+00 7.25e-04  3.37e-04    32s
  28   9.50839017e+02  9.54235350e+02  0.00e+00 4.78e-04  2.14e-04    33s
  29   9.50531888e+02  9.53654205e+02  0.00e+00 4.13e-04  1.72e-04    33s
  30   9.50376901e+02  9.52898712e+02  0.00e+00 3.26e-04  1.32e-04    34s
  31   9.50256645e+02  9.51992256e+02  0.00e+00 2.23e-04  8.98e-05    36s
  32   9.50165571e+02  9.51204901e+02  0.00e+00 1.34e-04  5.46e-05    37s
  33   9.50128009e+02  9.50776190e+02  0.00e+00 8.70e-05  3.79e-05    37s
  34   9.50090825e+02  9.50645042e+02  0.00e+00 7.25e-05  3.04e-05    38s
  35   9.50043514e+02  9.50279857e+02  6.58e-06 3.23e-05  1.46e-05    39s
  36   9.50002419e+02  9.50061282e+02  2.09e-05 8.09e-06  3.67e-06    40s
  37   9.49998402e+02  9.50039652e+02  1.58e-05 5.66e-06  2.56e-06    41s
  38   9.49998355e+02  9.50037911e+02  1.66e-05 5.47e-06  2.49e-06    43s
  39   9.49996314e+02  9.50032164e+02  2.77e-05 4.82e-06  2.13e-06    44s
  40   9.49995475e+02  9.50027376e+02  3.34e-05 4.28e-06  1.86e-06    45s
  41   9.49995284e+02  9.50026910e+02  4.16e-05 4.23e-06  1.84e-06    46s
  42   9.49995261e+02  9.50025945e+02  4.04e-05 4.12e-06  1.80e-06    47s
  43   9.49995047e+02  9.50025241e+02  5.05e-05 4.04e-06  1.76e-06    48s
  44   9.49994639e+02  9.50024483e+02  4.91e-05 3.95e-06  1.69e-06    49s
  45   9.49994352e+02  9.50022282e+02  4.96e-05 3.71e-06  1.59e-06    50s
  46   9.49994348e+02  9.50022277e+02  4.82e-05 3.71e-06  1.59e-06    52s
  47   9.49994203e+02  9.50016380e+02  5.89e-05 3.04e-06  1.36e-06    53s
  48   9.49993780e+02  9.50014661e+02  8.30e-05 2.85e-06  8.65e-07    54s
  49   9.49993450e+02  9.50013765e+02  5.87e-05 2.75e-06  8.29e-07    55s
  50   9.49993437e+02  9.50013762e+02  5.56e-05 2.75e-06  8.29e-07    56s
  51   9.49993298e+02  9.50012528e+02  5.82e-05 2.61e-06  7.91e-07    57s
  52   9.49993219e+02  9.50012339e+02  6.97e-05 2.59e-06  7.68e-07    58s
  53   9.49993267e+02  9.50010896e+02  7.80e-05 2.43e-06  7.15e-07    59s
  54   9.49993227e+02  9.50009766e+02  6.85e-05 2.30e-06  6.71e-07    60s
  55   9.49992818e+02  9.50008035e+02  1.13e-04 2.10e-06  6.15e-07    61s
  56   9.49992320e+02  9.50006809e+02  1.19e-04 1.97e-06  5.66e-07    62s
  57   9.49991742e+02  9.50005781e+02  1.22e-04 1.85e-06  5.31e-07    63s
  58   9.49991562e+02  9.50004436e+02  1.01e-04 1.70e-06  4.81e-07    64s
  59   9.49991527e+02  9.50004402e+02  1.06e-04 1.70e-06  4.80e-07    65s
  60   9.49991609e+02  9.50002797e+02  1.07e-04 1.52e-06  4.45e-07    66s
  61   9.49991276e+02  9.50001888e+02  1.19e-04 1.41e-06  4.17e-07    67s
  62   9.49991229e+02  9.50001871e+02  1.16e-04 1.41e-06  4.16e-07    68s
  63   9.49990499e+02  9.49999676e+02  1.19e-04 1.17e-06  3.20e-07    69s
  64   9.49990613e+02  9.49999553e+02  1.04e-04 1.15e-06  3.17e-07    70s
  65   9.49990452e+02  9.49998489e+02  9.91e-05 1.03e-06  2.86e-07    71s
  66   9.49990468e+02  9.49997385e+02  8.60e-05 9.08e-07  2.62e-07    72s
  67   9.49989858e+02  9.49997067e+02  1.44e-04 8.72e-07  2.33e-07    73s
  68   9.49989717e+02  9.49996342e+02  1.40e-04 7.91e-07  2.08e-07    74s
  69   9.49989743e+02  9.49995997e+02  1.37e-04 7.52e-07  2.01e-07    75s
  70   9.49989683e+02  9.49995431e+02  1.25e-04 6.87e-07  1.88e-07    77s
  71   9.49989352e+02  9.49995296e+02  1.17e-04 6.72e-07  1.81e-07    78s
  72   9.49989589e+02  9.49994687e+02  1.12e-04 6.03e-07  1.62e-07    79s
  73   9.49989516e+02  9.49994217e+02  9.87e-05 5.51e-07  1.50e-07    80s
  74   9.49989691e+02  9.49993669e+02  1.08e-04 4.89e-07  1.28e-07    81s
  75   9.49989786e+02  9.49993582e+02  1.18e-04 4.79e-07  1.26e-07    83s
  76   9.49989470e+02  9.49993582e+02  1.34e-04 4.79e-07  1.26e-07    84s
  77   9.49989397e+02  9.49993581e+02  1.33e-04 4.79e-07  1.26e-07    85s
  78   9.49989725e+02  9.49993334e+02  1.71e-04 4.52e-07  1.21e-07    87s
  79   9.49989009e+02  9.49992700e+02  1.63e-04 3.80e-07  1.02e-07    88s
  80   9.49989977e+02  9.49991236e+02  1.31e-04 2.15e-07  4.81e-08    91s
  81   9.49989935e+02  9.49991117e+02  1.37e-04 2.02e-07  4.52e-08    93s
  82   9.49989733e+02  9.49990938e+02  1.07e-04 1.82e-07  3.96e-08    95s
  83   9.49990445e+02  9.49990938e+02  1.19e-04 1.82e-07  3.95e-08    97s
  84   9.49990177e+02  9.49990090e+02  1.30e-04 8.94e-08  2.57e-08    98s
  85   9.49991182e+02  9.49990082e+02  1.42e-04 8.86e-08  2.48e-08   100s
  86   9.49991140e+02  9.49990081e+02  1.41e-04 8.86e-08  2.48e-08   101s
  87   9.49991090e+02  9.49990071e+02  1.52e-04 8.75e-08  2.45e-08   102s
  88   9.49991250e+02  9.49990048e+02  1.75e-04 8.48e-08  2.36e-08   103s
  89   9.49991229e+02  9.49990045e+02  1.77e-04 8.46e-08  2.36e-08   104s
  90   9.49991358e+02  9.49990043e+02  1.78e-04 8.44e-08  2.35e-08   105s
  91   9.49991780e+02  9.49990040e+02  2.05e-04 8.40e-08  2.31e-08   106s
  92   9.49991423e+02  9.49990021e+02  2.03e-04 8.20e-08  2.22e-08   107s
  93   9.49991581e+02  9.49990009e+02  2.03e-04 8.06e-08  2.19e-08   109s
  94   9.49991755e+02  9.49989948e+02  2.51e-04 7.37e-08  1.84e-08   111s
  95   9.49991991e+02  9.49989947e+02  2.36e-04 7.36e-08  1.84e-08   112s
  96   9.49992438e+02  9.49989896e+02  2.29e-04 6.80e-08  1.76e-08   114s
  97   9.49992447e+02  9.49989845e+02  2.24e-04 6.22e-08  1.65e-08   115s
  98   9.49992413e+02  9.49989839e+02  2.23e-04 6.15e-08  1.64e-08   117s
  99   9.49992598e+02  9.49989821e+02  1.89e-04 5.95e-08  1.56e-08   118s
 100   9.49992581e+02  9.49989817e+02  1.94e-04 5.91e-08  1.55e-08   119s
 101   9.49992545e+02  9.49989787e+02  1.74e-04 5.58e-08  1.47e-08   120s
 102   9.49992554e+02  9.49989787e+02  1.75e-04 5.58e-08  1.47e-08   121s
 103   9.49992558e+02  9.49989780e+02  1.72e-04 5.50e-08  1.45e-08   122s
 104   9.49992650e+02  9.49989780e+02  1.67e-04 5.50e-08  1.45e-08   123s
 105   9.49992483e+02  9.49989764e+02  1.73e-04 5.33e-08  1.38e-08   124s
 106   9.49992446e+02  9.49989757e+02  1.72e-04 5.24e-08  1.36e-08   125s
 107   9.49992239e+02  9.49989733e+02  1.56e-04 4.98e-08  1.30e-08   126s
 108   9.49991779e+02  9.49989733e+02  1.53e-04 4.98e-08  1.30e-08   127s
 109   9.49991786e+02  9.49989675e+02  1.51e-04 4.37e-08  1.20e-08   128s
 110   9.49991671e+02  9.49989667e+02  1.53e-04 4.28e-08  1.18e-08   129s
 111   9.49991016e+02  9.49989665e+02  2.28e-04 4.26e-08  1.16e-08   131s
 112   9.49990714e+02  9.49989624e+02  2.13e-04 3.80e-08  1.05e-08   132s
 113   9.49990763e+02  9.49989624e+02  2.14e-04 3.79e-08  1.04e-08   133s
 114   9.49990693e+02  9.49989604e+02  1.99e-04 3.57e-08  9.91e-09   134s
 115   9.49990604e+02  9.49989601e+02  1.97e-04 3.54e-08  9.85e-09   135s
 116   9.49990001e+02  9.49989578e+02  1.95e-04 3.29e-08  9.19e-09   136s
 117   9.49989970e+02  9.49989567e+02  1.81e-04 3.17e-08  8.73e-09   137s
 118   9.49989872e+02  9.49989561e+02  1.80e-04 3.10e-08  8.47e-09   138s
 119   9.49989763e+02  9.49989560e+02  1.63e-04 3.08e-08  8.38e-09   139s
 120   9.49989684e+02  9.49989547e+02  1.39e-04 2.90e-08  7.95e-09   141s
 121   9.49989573e+02  9.49989549e+02  1.37e-04 2.90e-08  7.92e-09   142s
 122   9.49989669e+02  9.49989533e+02  1.28e-04 2.71e-08  7.48e-09   143s
 123   9.49989659e+02  9.49989524e+02  1.25e-04 2.62e-08  7.31e-09   144s
 124   9.49989573e+02  9.49989518e+02  1.21e-04 2.56e-08  7.13e-09   145s
 125   9.49989314e+02  9.49989516e+02  1.25e-04 2.52e-08  7.03e-09   146s
 126   9.49989269e+02  9.49989515e+02  1.29e-04 2.52e-08  7.03e-09   147s
 127   9.49989096e+02  9.49989513e+02  1.63e-04 2.50e-08  6.98e-09   148s
 128   9.49988869e+02  9.49989503e+02  1.43e-04 2.39e-08  6.59e-09   149s
 129   9.49988943e+02  9.49989496e+02  1.46e-04 2.30e-08  6.31e-09   149s
 130   9.49988195e+02  9.49989482e+02  1.75e-04 2.14e-08  5.85e-09   150s
 131   9.49988182e+02  9.49989478e+02  1.75e-04 2.10e-08  5.79e-09   151s
 132   9.49987928e+02  9.49989478e+02  1.65e-04 2.10e-08  5.78e-09   152s
 133   9.49987747e+02  9.49989478e+02  1.55e-04 2.10e-08  5.78e-09   153s
 134   9.49987890e+02  9.49989429e+02  1.57e-04 1.58e-08  4.72e-09   155s
 135   9.49987901e+02  9.49989429e+02  1.57e-04 1.57e-08  4.70e-09   156s
 136   9.49987925e+02  9.49989429e+02  1.57e-04 1.57e-08  4.70e-09   157s
 137   9.49988094e+02  9.49989408e+02  1.45e-04 1.34e-08  4.18e-09   160s
 138   9.49988442e+02  9.49989402e+02  1.33e-04 1.26e-08  3.89e-09   161s
 139   9.49988380e+02  9.49989401e+02  1.36e-04 1.25e-08  3.89e-09   163s
 140   9.49988387e+02  9.49989401e+02  1.35e-04 1.25e-08  3.89e-09   164s
 141   9.49988592e+02  9.49989397e+02  1.36e-04 1.23e-08  3.83e-09   166s
 142   9.49988618e+02  9.49989396e+02  1.34e-04 1.22e-08  3.83e-09   167s
 143   9.49988673e+02  9.49989396e+02  1.28e-04 1.22e-08  3.83e-09   169s
 144   9.49988717e+02  9.49989396e+02  1.25e-04 1.22e-08  3.82e-09   170s
 145   9.49989606e+02  9.49989390e+02  1.17e-04 1.17e-08  3.42e-09   172s
 146   9.49989716e+02  9.49989389e+02  1.19e-04 1.17e-08  3.42e-09   173s
 147   9.49989427e+02  9.49989389e+02  1.16e-04 1.17e-08  3.43e-09   174s
 148   9.49989489e+02  9.49989386e+02  1.23e-04 1.13e-08  3.35e-09   176s
 149   9.49989539e+02  9.49989386e+02  1.24e-04 1.13e-08  3.34e-09   177s
 150   9.49989262e+02  9.49989358e+02  1.32e-04 8.18e-09  2.55e-09   179s
 151   9.49989139e+02  9.49989347e+02  1.29e-04 6.99e-09  2.32e-09   181s
 152   9.49989266e+02  9.49989345e+02  1.26e-04 6.75e-09  2.22e-09   182s
 153   9.49989284e+02  9.49989345e+02  1.53e-04 6.68e-09  2.19e-09   183s
 154   9.49989673e+02  9.49989337e+02  1.81e-04 5.75e-09  1.91e-09   185s
 155   9.49989896e+02  9.49989335e+02  2.42e-04 5.47e-09  1.68e-09   187s
 156   9.49989624e+02  9.49989335e+02  2.64e-04 5.47e-09  1.67e-09   188s
 157   9.49989501e+02  9.49989334e+02  2.54e-04 5.36e-09  1.64e-09   188s
 158   9.49989617e+02  9.49989333e+02  2.45e-04 5.29e-09  1.61e-09   190s
 159   9.49989611e+02  9.49989333e+02  2.45e-04 5.29e-09  1.61e-09   191s
 160   9.49989475e+02  9.49989332e+02  2.35e-04 5.16e-09  1.57e-09   192s
 161   9.49989384e+02  9.49989334e+02  2.36e-04 5.12e-09  1.56e-09   193s
 162   9.49989480e+02  9.49989332e+02  2.30e-04 4.97e-09  1.53e-09   194s
 163   9.49989457e+02  9.49989332e+02  2.32e-04 4.97e-09  1.53e-09   195s
 164   9.49989808e+02  9.49989329e+02  2.15e-04 4.61e-09  1.47e-09   196s
 165   9.49989801e+02  9.49989329e+02  2.15e-04 4.58e-09  1.46e-09   197s
 166   9.49989726e+02  9.49989328e+02  2.16e-04 4.51e-09  1.45e-09   198s
 167   9.49989686e+02  9.49989328e+02  2.14e-04 4.51e-09  1.45e-09   199s
 168   9.49989352e+02  9.49989326e+02  1.95e-04 4.17e-09  1.39e-09   200s
 169   9.49989503e+02  9.49989325e+02  2.39e-04 4.05e-09  1.33e-09   201s
 170   9.49989499e+02  9.49989323e+02  2.37e-04 3.95e-09  1.32e-09   202s
 171   9.49989519e+02  9.49989319e+02  2.39e-04 3.61e-09  1.25e-09   203s
 172   9.49989512e+02  9.49989320e+02  2.43e-04 3.55e-09  1.23e-09   204s
 173   9.49989677e+02  9.49989317e+02  1.93e-04 3.27e-09  1.15e-09   205s
 174   9.49989323e+02  9.49989315e+02  1.93e-04 3.10e-09  1.07e-09   206s
 175   9.49989330e+02  9.49989315e+02  1.91e-04 3.03e-09  1.05e-09   207s
 176   9.49989200e+02  9.49989315e+02  1.88e-04 3.03e-09  1.05e-09   208s
 177   9.49989316e+02  9.49989315e+02  1.83e-04 3.01e-09  1.02e-09   209s
 178   9.49989297e+02  9.49989315e+02  1.84e-04 3.01e-09  1.02e-09   210s
 179   9.49989319e+02  9.49989314e+02  1.85e-04 3.00e-09  1.02e-09   211s
 180   9.49989258e+02  9.49989314e+02  1.78e-04 3.00e-09  9.92e-10   212s
 181   9.49989137e+02  9.49989314e+02  1.75e-04 2.67e-09  9.37e-10   214s
 182   9.49988932e+02  9.49989312e+02  1.65e-04 2.51e-09  8.88e-10   215s
 183   9.49988826e+02  9.49989309e+02  1.56e-04 2.35e-09  8.45e-10   217s
 184   9.49988869e+02  9.49989307e+02  1.54e-04 2.13e-09  7.95e-10   218s
 185   9.49989212e+02  9.49989305e+02  1.86e-04 2.01e-09  7.18e-10   220s
 186   9.49988816e+02  9.49989303e+02  1.69e-04 1.69e-09  6.53e-10   222s
 187   9.49989396e+02  9.49989302e+02  1.61e-04 1.64e-09  5.13e-10   223s
 188   9.49989519e+02  9.49989303e+02  1.59e-04 1.54e-09  4.91e-10   226s
 189   9.49989527e+02  9.49989302e+02  1.77e-04 1.54e-09  4.89e-10   227s
 190   9.49989593e+02  9.49989301e+02  1.76e-04 1.41e-09  4.57e-10   228s
 191   9.49989232e+02  9.49989301e+02  1.64e-04 1.36e-09  4.28e-10   229s
 192   9.49989270e+02  9.49989301e+02  1.65e-04 1.34e-09  4.24e-10   230s
 193   9.49989242e+02  9.49989299e+02  1.63e-04 1.21e-09  4.05e-10   231s
 194   9.49989139e+02  9.49989299e+02  1.60e-04 1.17e-09  3.95e-10   232s
 195   9.49989117e+02  9.49989297e+02  1.69e-04 1.10e-09  3.78e-10   233s
 196   9.49989042e+02  9.49989296e+02  1.68e-04 1.06e-09  3.64e-10   235s
 197   9.49989075e+02  9.49989296e+02  1.60e-04 1.04e-09  3.41e-10   236s
 198   9.49989188e+02  9.49989296e+02  1.65e-04 1.03e-09  3.36e-10   237s
 199   9.49989178e+02  9.49989296e+02  1.61e-04 1.03e-09  3.35e-10   238s
 200   9.49989166e+02  9.49989296e+02  1.62e-04 1.03e-09  3.35e-10   239s
 201   9.49989319e+02  9.49989294e+02  1.50e-04 8.22e-10  3.09e-10   240s
 202   9.49989271e+02  9.49989293e+02  1.95e-04 8.18e-10  3.04e-10   241s
 203   9.49989422e+02  9.49989291e+02  1.98e-04 7.80e-10  2.88e-10   243s
 204   9.49989494e+02  9.49989290e+02  2.01e-04 7.71e-10  2.83e-10   244s
 205   9.49989896e+02  9.49989290e+02  1.82e-04 7.70e-10  2.82e-10   245s
 206   9.49990090e+02  9.49989290e+02  1.98e-04 7.46e-10  2.77e-10   247s
 207   9.49990058e+02  9.49989290e+02  2.05e-04 7.46e-10  2.76e-10   248s
 208   9.49990156e+02  9.49989290e+02  1.99e-04 7.00e-10  2.61e-10   251s
 209   9.49990006e+02  9.49989289e+02  1.90e-04 5.23e-10  2.25e-10   254s
 210   9.49990358e+02  9.49989289e+02  2.06e-04 5.22e-10  2.20e-10   256s
 211   9.49990214e+02  9.49989287e+02  1.97e-04 4.43e-10  2.15e-10   258s
 212   9.49990453e+02  9.49989286e+02  1.44e-04 3.38e-10  1.63e-10   260s
 213   9.49990445e+02  9.49989286e+02  1.43e-04 3.10e-10  1.71e-10   261s
 214   9.49990796e+02  9.49989286e+02  1.74e-04 2.58e-10  1.36e-10   263s
 215   9.49990113e+02  9.49989286e+02  1.73e-04 2.52e-10  1.31e-10   264s
 216   9.49990280e+02  9.49989285e+02  1.62e-04 2.41e-10  1.11e-10   265s
 217   9.49990166e+02  9.49989285e+02  1.64e-04 2.36e-10  1.08e-10   265s
 218   9.49990459e+02  9.49989285e+02  1.71e-04 2.34e-10  1.03e-10   267s
 219   9.49990232e+02  9.49989285e+02  1.58e-04 2.34e-10  1.03e-10   268s
 220   9.49990286e+02  9.49989285e+02  1.49e-04 2.29e-10  1.00e-10   269s
 221   9.49990293e+02  9.49989285e+02  1.49e-04 2.25e-10  9.93e-11   270s

Barrier performed 221 iterations in 269.98 seconds (152.19 work units)
Sub-optimal termination - objective 9.49996314e+02

Optimization finished!
Restarting optimization for throughput iteration 1...
Gurobi Optimizer version 10.0.3 build v10.0.3rc0 (linux64)

CPU model: Intel(R) Xeon(R) Gold 6146 CPU @ 3.20GHz, instruction set [SSE2|AVX|AVX2|AVX512]
Thread count: 24 physical cores, 48 logical processors, using up to 24 threads

Optimize a model with 5770 rows, 2726 columns and 15729020 nonzeros
Model fingerprint: 0xb16f29cf
Coefficient statistics:
  Matrix range     [2e-12, 5e-04]
  Objective range  [2e-03, 1e+00]
  Bounds range     [1e+00, 1e+00]
  RHS range        [4e-06, 4e-06]
Presolve removed 0 rows and 0 columns (presolve time = 6s) ...
Presolve time: 7.30s
Presolved: 2726 rows, 8496 columns, 15731746 nonzeros
Ordering time: 0.06s

Barrier statistics:
 AA' NZ     : 3.714e+06
 Factor NZ  : 3.717e+06 (roughly 34 MB of memory)
 Factor Ops : 6.756e+09 (less than 1 second per iteration)
 Threads    : 24

                  Objective                Residual
Iter       Primal          Dual         Primal    Dual     Compl     Time
   0   5.59299006e+03  0.00000000e+00  0.00e+00 0.00e+00  9.77e-01    11s
   1   2.94082381e+03  6.79994241e+02  0.00e+00 1.52e-01  3.50e-01    12s
   2   2.11122510e+03  9.33763168e+02  0.00e+00 1.07e-01  2.01e-01    12s
   3   1.78419305e+03  1.09925861e+03  0.00e+00 7.80e-02  1.34e-01    13s
   4   1.67348285e+03  1.10271860e+03  0.00e+00 7.01e-02  1.20e-01    14s
   5   1.40198107e+03  1.15508543e+03  0.00e+00 5.08e-02  7.94e-02    14s
   6   1.27556386e+03  1.14219446e+03  0.00e+00 4.35e-02  6.47e-02    15s
   7   1.14077982e+03  1.10398361e+03  0.00e+00 3.46e-02  4.83e-02    16s
   8   1.08994917e+03  1.08822999e+03  0.00e+00 3.13e-02  4.19e-02    17s
   9   1.04842720e+03  1.07071944e+03  0.00e+00 2.87e-02  3.70e-02    17s
  10   1.04087859e+03  1.06789890e+03  0.00e+00 2.82e-02  3.60e-02    18s
  11   1.01138585e+03  1.04605665e+03  0.00e+00 2.45e-02  3.11e-02    19s
  12   9.51635472e+02  1.02395186e+03  0.00e+00 2.17e-02  2.45e-02    19s
  13   9.30934560e+02  9.89591885e+02  0.00e+00 1.74e-02  1.95e-02    20s
  14   9.19850026e+02  9.66813361e+02  0.00e+00 1.48e-02  1.69e-02    21s
  15   8.95309691e+02  9.50626912e+02  0.00e+00 1.31e-02  1.33e-02    21s
  16   8.91602489e+02  9.44855155e+02  0.00e+00 1.24e-02  1.26e-02    22s
  17   8.84121019e+02  9.36470588e+02  0.00e+00 1.16e-02  1.14e-02    23s
  18   8.63929711e+02  9.13981668e+02  0.00e+00 9.16e-03  7.86e-03    24s
  19   8.57822612e+02  8.96286118e+02  0.00e+00 7.33e-03  6.41e-03    24s
  20   8.49057176e+02  8.82487173e+02  0.00e+00 5.94e-03  4.79e-03    25s
  21   8.46578269e+02  8.75789934e+02  0.00e+00 5.23e-03  4.23e-03    26s
  22   8.43601856e+02  8.68034295e+02  0.00e+00 4.48e-03  3.62e-03    27s
  23   8.31857321e+02  8.60040981e+02  0.00e+00 3.68e-03  1.98e-03    27s
  24   8.29708330e+02  8.55180122e+02  0.00e+00 3.20e-03  1.63e-03    28s
  25   8.26193842e+02  8.43803512e+02  0.00e+00 2.10e-03  9.41e-04    29s
  26   8.25080715e+02  8.37807798e+02  0.00e+00 1.52e-03  6.72e-04    30s
  27   8.24253897e+02  8.33772089e+02  0.00e+00 1.14e-03  4.96e-04    31s
  28   8.23719732e+02  8.33270507e+02  0.00e+00 1.09e-03  4.37e-04    31s
  29   8.23297294e+02  8.29748108e+02  0.00e+00 7.50e-04  3.14e-04    32s
  30   8.22859950e+02  8.28205044e+02  0.00e+00 5.98e-04  2.38e-04    33s
  31   8.22567067e+02  8.27924208e+02  0.00e+00 5.72e-04  2.07e-04    34s
  32   8.22416096e+02  8.26549035e+02  0.00e+00 4.42e-04  1.64e-04    35s
  33   8.22250339e+02  8.25030017e+02  0.00e+00 3.01e-04  1.17e-04    36s
  34   8.22213314e+02  8.24915537e+02  0.00e+00 2.90e-04  1.12e-04    36s
  35   8.22076420e+02  8.23905769e+02  0.00e+00 1.97e-04  7.69e-05    37s
  36   8.21913695e+02  8.23037210e+02  4.92e-06 1.17e-04  4.33e-05    38s
  37   8.21859981e+02  8.22997375e+02  1.09e-05 1.14e-04  3.83e-05    39s
  38   8.21823438e+02  8.22642972e+02  1.29e-05 8.15e-05  2.72e-05    40s
  39   8.21814955e+02  8.22587789e+02  1.07e-05 7.65e-05  2.55e-05    41s
  40   8.21790249e+02  8.22524326e+02  9.81e-06 7.08e-05  2.23e-05    42s
  41   8.21782311e+02  8.22336467e+02  2.40e-05 5.35e-05  1.71e-05    44s
  42   8.21772512e+02  8.22269745e+02  2.42e-05 4.75e-05  1.49e-05    45s
  43   8.21770332e+02  8.22207838e+02  2.36e-05 4.21e-05  1.35e-05    47s
  44   8.21766050e+02  8.22154374e+02  2.79e-05 3.74e-05  1.20e-05    48s
  45   8.21764686e+02  8.22150919e+02  3.01e-05 3.71e-05  1.18e-05    49s
  46   8.21761458e+02  8.22074328e+02  3.24e-05 3.04e-05  1.01e-05    51s
  47   8.21760975e+02  8.22038307e+02  3.56e-05 2.72e-05  9.29e-06    52s
  48   8.21760352e+02  8.22033071e+02  2.75e-05 2.68e-05  9.14e-06    53s
  49   8.21756702e+02  8.21986669e+02  3.67e-05 2.27e-05  7.83e-06    54s
  50   8.21748089e+02  8.21919782e+02  3.68e-05 1.67e-05  5.63e-06    56s
  51   8.21748117e+02  8.21919518e+02  5.96e-05 1.67e-05  5.63e-06    57s
  52   8.21743061e+02  8.21913259e+02  3.92e-05 1.61e-05  5.08e-06    58s
  53   8.21742394e+02  8.21913142e+02  5.60e-05 1.61e-05  3.89e-06    59s
  54   8.21741986e+02  8.21908477e+02  5.93e-05 1.57e-05  3.81e-06    60s
  55   8.21741585e+02  8.21903263e+02  7.97e-05 1.53e-05  3.71e-06    62s
  56   8.21741022e+02  8.21897970e+02  6.60e-05 1.48e-05  3.58e-06    63s
  57   8.21740803e+02  8.21897963e+02  6.75e-05 1.48e-05  3.58e-06    64s
  58   8.21740309e+02  8.21895600e+02  9.23e-05 1.46e-05  3.51e-06    65s
  59   8.21739353e+02  8.21879321e+02  8.81e-05 1.32e-05  3.18e-06    66s
  60   8.21739334e+02  8.21879317e+02  8.67e-05 1.32e-05  3.18e-06    67s
  61   8.21739309e+02  8.21879313e+02  8.99e-05 1.32e-05  3.18e-06    68s
  62   8.21738750e+02  8.21873736e+02  9.29e-05 1.27e-05  3.05e-06    70s
  63   8.21738319e+02  8.21871024e+02  8.88e-05 1.25e-05  2.99e-06    71s
  64   8.21737991e+02  8.21869507e+02  8.50e-05 1.24e-05  2.96e-06    73s
  65   8.21737884e+02  8.21868037e+02  8.45e-05 1.22e-05  2.93e-06    74s
  66   8.21737794e+02  8.21867604e+02  1.01e-04 1.22e-05  2.90e-06    75s
  67   8.21737429e+02  8.21863027e+02  8.96e-05 1.18e-05  2.79e-06    77s
  68   8.21737112e+02  8.21859356e+02  1.01e-04 1.15e-05  2.72e-06    79s
  69   8.21736472e+02  8.21855306e+02  1.51e-04 1.11e-05  2.58e-06    80s
  70   8.21737059e+02  8.21855080e+02  1.48e-04 1.11e-05  2.57e-06    81s
  71   8.21736987e+02  8.21854759e+02  1.45e-04 1.11e-05  2.57e-06    82s
  72   8.21736761e+02  8.21842489e+02  1.41e-04 1.00e-05  2.36e-06    84s
  73   8.21733699e+02  8.21838775e+02  1.47e-04 9.71e-06  2.15e-06    85s
  74   8.21733559e+02  8.21836172e+02  1.50e-04 9.48e-06  2.11e-06    87s
  75   8.21733155e+02  8.21834679e+02  1.64e-04 9.36e-06  2.04e-06    88s
  76   8.21732594e+02  8.21833702e+02  1.58e-04 9.27e-06  2.00e-06    89s
  77   8.21732623e+02  8.21833698e+02  1.60e-04 9.27e-06  2.00e-06    91s
  78   8.21732480e+02  8.21832017e+02  1.46e-04 9.13e-06  1.95e-06    92s
  79   8.21732455e+02  8.21818792e+02  1.54e-04 7.98e-06  1.71e-06    93s
  80   8.21732471e+02  8.21818569e+02  1.75e-04 7.96e-06  1.71e-06    94s
  81   8.21732415e+02  8.21815575e+02  1.73e-04 7.71e-06  1.66e-06    95s
  82   8.21732343e+02  8.21814564e+02  1.75e-04 7.62e-06  1.65e-06    96s
  83   8.21732043e+02  8.21810553e+02  1.76e-04 7.28e-06  1.58e-06    97s
  84   8.21731944e+02  8.21810549e+02  1.87e-04 7.28e-06  1.58e-06    98s
  85   8.21731857e+02  8.21808325e+02  1.77e-04 7.08e-06  1.55e-06    99s
  86   8.21732148e+02  8.21803575e+02  1.72e-04 6.68e-06  1.47e-06   100s
  87   8.21732084e+02  8.21801612e+02  1.73e-04 6.51e-06  1.43e-06   101s
  88   8.21732123e+02  8.21801390e+02  1.69e-04 6.49e-06  1.43e-06   102s
  89   8.21732087e+02  8.21800928e+02  1.71e-04 6.45e-06  1.42e-06   103s
  90   8.21731992e+02  8.21800740e+02  1.65e-04 6.43e-06  1.42e-06   104s
  91   8.21731893e+02  8.21799934e+02  1.64e-04 6.36e-06  1.39e-06   105s
  92   8.21731869e+02  8.21797900e+02  1.54e-04 6.19e-06  1.36e-06   106s
  93   8.21731756e+02  8.21797081e+02  1.82e-04 6.12e-06  1.34e-06   107s
  94   8.21731879e+02  8.21795004e+02  2.05e-04 5.94e-06  1.30e-06   108s
  95   8.21732035e+02  8.21794921e+02  2.05e-04 5.93e-06  1.30e-06   109s
  96   8.21732039e+02  8.21794863e+02  2.10e-04 5.93e-06  1.30e-06   110s
  97   8.21732017e+02  8.21793617e+02  2.13e-04 5.82e-06  1.28e-06   111s
  98   8.21731902e+02  8.21792297e+02  1.90e-04 5.71e-06  1.26e-06   113s
  99   8.21731985e+02  8.21791510e+02  1.88e-04 5.64e-06  1.24e-06   114s
 100   8.21731317e+02  8.21786370e+02  3.35e-04 5.19e-06  1.14e-06   116s
 101   8.21731231e+02  8.21785526e+02  3.22e-04 5.12e-06  1.13e-06   117s
 102   8.21731207e+02  8.21784935e+02  3.19e-04 5.07e-06  1.12e-06   119s
 103   8.21730219e+02  8.21776225e+02  2.46e-04 4.32e-06  9.69e-07   121s
 104   8.21730191e+02  8.21776216e+02  2.43e-04 4.32e-06  9.69e-07   122s
 105   8.21730402e+02  8.21775389e+02  2.34e-04 4.25e-06  9.55e-07   123s
 106   8.21730311e+02  8.21775151e+02  2.35e-04 4.23e-06  9.47e-07   124s
 107   8.21730343e+02  8.21775142e+02  2.35e-04 4.23e-06  9.47e-07   125s
 108   8.21730219e+02  8.21773609e+02  2.42e-04 4.10e-06  9.25e-07   126s
 109   8.21730172e+02  8.21773418e+02  2.41e-04 4.08e-06  9.21e-07   127s
 110   8.21730175e+02  8.21773371e+02  2.45e-04 4.08e-06  9.21e-07   128s
 111   8.21730258e+02  8.21773370e+02  2.41e-04 4.08e-06  9.21e-07   129s
 112   8.21729889e+02  8.21773028e+02  2.32e-04 4.05e-06  9.11e-07   131s
 113   8.21729921e+02  8.21772644e+02  2.28e-04 4.02e-06  9.05e-07   132s

Barrier performed 113 iterations in 132.13 seconds (70.87 work units)
Sub-optimal termination - objective 8.21741585e+02

/user/bnickson/GitHub/LUVex_TelAps/aplc_optimization/surveys/usort_offaxis_survey_N0128_telserv3/FPM37_IWA36/drivers/02_USORT_N128_FPM370M0150_IWA0360_OWA01400_C10_BW20_Nlam5_LS_IDc_ID0_OD_OD0_ls_90_ovsamp16_.py:102: DeprecationWarning: circular_aperture is deprecated. Its new name is make_circular_aperture.
  dark_zone_mask = circular_aperture(img_owa * 2)(focal_grid) - circular_aperture(img_iwa * 2)(focal_grid)
/user/bnickson/GitHub/LUVex_TelAps/aplc_optimization/surveys/usort_offaxis_survey_N0128_telserv3/FPM37_IWA36/drivers/02_USORT_N128_FPM370M0150_IWA0360_OWA01400_C10_BW20_Nlam5_LS_IDc_ID0_OD_OD0_ls_90_ovsamp16_.py:110: DeprecationWarning: circular_aperture is deprecated. Its new name is make_circular_aperture.
  focal_plane_mask = 1 - evaluate_supersampled(circular_aperture(2 * fpm_radius), focal_mask_grid, 8)
WARNING: VerifyWarning: Keyword name 'LS_ALIGN_TOl' is greater than 8 characters or contains characters not allowed by the FITS standard; a HIERARCH card will be created. [astropy.io.fits.card]
WARNING: VerifyWarning: Keyword name 'LS_NUM_STOPS' is greater than 8 characters or contains characters not allowed by the FITS standard; a HIERARCH card will be created. [astropy.io.fits.card]
WARNING: VerifyWarning: Keyword name 'PROG_START' is greater than 8 characters or contains characters not allowed by the FITS standard; a HIERARCH card will be created. [astropy.io.fits.card]
WARNING: VerifyWarning: Keyword name 'PROG_EDGE' is greater than 8 characters or contains characters not allowed by the FITS standard; a HIERARCH card will be created. [astropy.io.fits.card]
WARNING: VerifyWarning: Keyword name 'THRPT_ITER' is greater than 8 characters or contains characters not allowed by the FITS standard; a HIERARCH card will be created. [astropy.io.fits.card]
WARNING: VerifyWarning: Keyword name 'THRPT_ESTIM' is greater than 8 characters or contains characters not allowed by the FITS standard; a HIERARCH card will be created. [astropy.io.fits.card]
WARNING: VerifyWarning: Keyword name 'MAX_THRPT' is greater than 8 characters or contains characters not allowed by the FITS standard; a HIERARCH card will be created. [astropy.io.fits.card]
WARNING: VerifyWarning: Keyword name 'SLV_THRDS' is greater than 8 characters or contains characters not allowed by the FITS standard; a HIERARCH card will be created. [astropy.io.fits.card]
WARNING: VerifyWarning: Keyword name 'SLV_XOVER' is greater than 8 characters or contains characters not allowed by the FITS standard; a HIERARCH card will be created. [astropy.io.fits.card]
Optimization finished!
